
Log started (V12.10.0.0) Mon Apr  5 22:38:54 2021


Problem 'asset.lp' read.
Read time = 0.01 sec. (0.41 ticks)
New value for default parallel thread count: 1
New value for time limit in seconds: 150
Version identifier: 12.10.0.0 | 2019-11-26 | 843d4de
CPXPARAM_Threads                                 1
CPXPARAM_TimeLimit                               150
Found incumbent of value 0.000000 after 0.00 sec. (0.12 ticks)
Tried aggregator 3 times.
MIP Presolve eliminated 1284 rows and 278 columns.
MIP Presolve modified 2563 coefficients.
Aggregator did 1411 substitutions.
Reduced MIP has 1034 rows, 1969 columns, and 7500 nonzeros.
Reduced MIP has 1770 binaries, 163 generals, 0 SOSs, and 0 indicators.
Presolve time = 0.02 sec. (16.38 ticks)
Probing time = 0.00 sec. (2.71 ticks)
Tried aggregator 1 time.
Detecting symmetries...
MIP Presolve modified 186 coefficients.
Reduced MIP has 1034 rows, 1969 columns, and 7500 nonzeros.
Reduced MIP has 1770 binaries, 163 generals, 0 SOSs, and 0 indicators.
Presolve time = 0.00 sec. (4.94 ticks)
Probing time = 0.00 sec. (2.65 ticks)
Clique table members: 3096.
MIP emphasis: balance optimality and feasibility.
MIP search method: dynamic search.
Parallel mode: none, using 1 thread.
Root relaxation solution time = 0.01 sec. (9.28 ticks)

        Nodes                                         Cuts/
   Node  Left     Objective  IInf  Best Integer    Best Bound    ItCnt     Gap

*     0+    0                            0.0000      272.0000              --- 
      0     0      272.0000   180        0.0000      272.0000      363     --- 
      0     0      272.0000   180        0.0000      Cuts: 47      493     --- 
      0     0      272.0000   180        0.0000     Cuts: 264      748     --- 
      0     0      272.0000   180        0.0000      Cuts: 10      844     --- 
      0     0      272.0000   180        0.0000     Cuts: 211     1142     --- 
*     0+    0                           12.0000      272.0000              --- 
*     0+    0                          218.0000      272.0000            24.77%
*     0+    0                          220.0000      272.0000            23.64%
*     0+    0                          232.0000      272.0000            17.24%
      0     0        cutoff            232.0000      272.0000     1142   17.24%
      0     2      272.0000    75      232.0000      272.0000     1142   17.24%
Elapsed time = 1.28 sec. (1458.06 ticks, tree = 0.01 MB, solutions = 4)
     80    82      272.0000    82      232.0000      272.0000     4553   17.24%
*   244   225      integral     0      238.0000      272.0000     6996   14.29%
    312   286      254.0000    46      238.0000      272.0000     8043   14.29%
    575   517      272.0000   107      238.0000      272.0000    11715   14.29%
    789   691      240.0000    76      238.0000      272.0000    15774   14.29%
*  1056+  722                          242.0000      272.0000            12.40%
   1057   725      268.0000    74      242.0000      272.0000    18982   12.40%

Performing restart 1

Repeating presolve.
Tried aggregator 2 times.
MIP Presolve modified 1941 coefficients.
Aggregator did 7 substitutions.
Reduced MIP has 1027 rows, 1962 columns, and 5915 nonzeros.
Reduced MIP has 1763 binaries, 163 generals, 0 SOSs, and 0 indicators.
Presolve time = 0.01 sec. (7.20 ticks)
Tried aggregator 1 time.
Reduced MIP has 1027 rows, 1962 columns, and 5915 nonzeros.
Reduced MIP has 1763 binaries, 163 generals, 0 SOSs, and 0 indicators.
Presolve time = 0.00 sec. (4.78 ticks)
Represolve time = 0.03 sec. (28.15 ticks)
   1166     0      272.0000   252      242.0000      Cuts: 27    23091   12.40%
   1166     0      272.0000   252      242.0000     Cuts: 247    23327   12.40%
   1166     0      272.0000   252      242.0000      Cuts: 30    23433   12.40%
   1166     0      272.0000   252      242.0000     Cuts: 147    23631   12.40%
   1166     0      272.0000   252      242.0000      Cuts: 24    23754   12.40%
   1166     0      272.0000   252      242.0000     Cuts: 266    24014   12.40%
   1166     0      272.0000   252      242.0000      Cuts: 17    24161   12.40%
   1166     0      272.0000   252      242.0000     Cuts: 179    24335   12.40%
*  1166+    0                          246.0000      272.0000            10.57%
*  1166+    0                          248.0000      272.0000             9.68%
   1166     0        cutoff            248.0000      272.0000    24335    9.68%
   1166     2      272.0000    80      248.0000      272.0000    24335    9.68%
   1176    12      272.0000    95      248.0000      272.0000    25056    9.68%
   1187    23      272.0000   102      248.0000      272.0000    25929    9.68%
   1199    35      272.0000   112      248.0000      272.0000    26873    9.68%
   1366   145      272.0000   103      248.0000      272.0000    31350    9.68%
Elapsed time = 6.80 sec. (8190.44 ticks, tree = 0.82 MB, solutions = 8)
   1701   405      272.0000   100      248.0000      272.0000    39208    9.68%
   1947   617      272.0000   108      248.0000      272.0000    49426    9.68%
   2376   990      272.0000    95      248.0000      272.0000    61591    9.68%
   2849  1421      258.0000   104      248.0000      272.0000    73780    9.68%
   3250  1788      270.0000    72      248.0000      272.0000    85418    9.68%
   3586  2103      272.0000   120      248.0000      272.0000    96727    9.68%
   3970  2451      265.1853   145      248.0000      272.0000   108964    9.68%
   4239  2693      272.0000   110      248.0000      272.0000   120009    9.68%
   4546  2975      272.0000   143      248.0000      272.0000   131864    9.68%
   4879  3289      272.0000   185      248.0000      272.0000   142870    9.68%
Elapsed time = 14.17 sec. (17818.82 ticks, tree = 27.02 MB, solutions = 8)
   4966  3368      270.9669   159      248.0000      272.0000   147265    9.68%
   5309  3668      265.7962   108      248.0000      272.0000   158811    9.68%
   5637  3973      262.4620   109      248.0000      272.0000   169132    9.68%
   5994  4296      256.0000    55      248.0000      272.0000   179643    9.68%
   6283  4561      262.0000   114      248.0000      272.0000   189936    9.68%
   6671  4912      260.0000    99      248.0000      272.0000   200483    9.68%
   6970  5186      264.9992   140      248.0000      272.0000   211554    9.68%
   7310  5497      272.0000   159      248.0000      272.0000   221943    9.68%
   7643  5791      266.0000   119      248.0000      272.0000   232831    9.68%
   7896  6027      265.6626   128      248.0000      272.0000   244516    9.68%
Elapsed time = 22.50 sec. (28489.15 ticks, tree = 51.89 MB, solutions = 8)
   8207  6299      259.1829   120      248.0000      272.0000   255522    9.68%
   8606  6661      272.0000   142      248.0000      272.0000   266351    9.68%
   8862  6897      272.0000   185      248.0000      272.0000   275987    9.68%
   9146  7150      256.0000   123      248.0000      272.0000   286905    9.68%
   9455  7437      272.0000   145      248.0000      272.0000   297445    9.68%
   9549  7523      271.5758   212      248.0000      272.0000   309400    9.68%
   9905  7848      272.0000   163      248.0000      272.0000   320251    9.68%
   9966  7906      272.0000   132      248.0000      272.0000   326214    9.68%
  10312  8223      272.0000   174      248.0000      272.0000   337290    9.68%
  10555  8451      256.1546    85      248.0000      272.0000   348201    9.68%
Elapsed time = 30.17 sec. (38888.31 ticks, tree = 73.72 MB, solutions = 8)
  10746  8629      264.0000   119      248.0000      272.0000   358239    9.68%
  11093  8946      258.0000   128      248.0000      272.0000   369910    9.68%
  11366  9200      272.0000   151      248.0000      272.0000   380543    9.68%
  11666  9474      258.0000   113      248.0000      272.0000   392603    9.68%
* 11706+ 8450                          252.0000      272.0000             7.94%
* 11706+ 7149                          256.0000      272.0000             6.25%
  11706  7148      256.0000     0      256.0000      272.0000   393836    6.25%
  11707  7149      272.0000    77      256.0000      272.0000   393903    6.25%
  11912  7326      260.0000   106      256.0000      272.0000   404379    6.25%
  12140  7518      271.9306   177      256.0000      272.0000   415644    6.25%
  12306  7665      266.0000   170      256.0000      272.0000   425825    6.25%
  12463  7810      262.4854   113      256.0000      272.0000   432503    6.25%
Elapsed time = 45.07 sec. (55632.14 ticks, tree = 70.18 MB, solutions = 10)
  12632  7959      272.0000   141      256.0000      272.0000   442078    6.25%
  12766  8085      272.0000   168      256.0000      272.0000   451108    6.25%
  13023  8319        cutoff            256.0000      272.0000   461683    6.25%
  13136  8408      271.2232   251      256.0000      272.0000   473286    6.25%
  13270  8528      271.7478   218      256.0000      272.0000   480905    6.25%
  13448  8689      265.3052   157      256.0000      272.0000   490495    6.25%
  13620  8829      272.0000   102      256.0000      272.0000   499654    6.25%
  13720  8917      271.9762   302      256.0000      272.0000   511259    6.25%
  13766  8959      271.1190   228      256.0000      272.0000   515333    6.25%
  13875  9057      271.8105   254      256.0000      272.0000   526625    6.25%
Elapsed time = 53.15 sec. (66868.60 ticks, tree = 83.66 MB, solutions = 10)
  13969  9142      270.3706   200      256.0000      272.0000   536148    6.25%
  14084  9243      271.0000   191      256.0000      272.0000   546611    6.25%
  14227  9362      272.0000   126      256.0000      272.0000   556856    6.25%
  14401  9497      271.1727   251      256.0000      272.0000   568204    6.25%
  14605  9679      264.0000   125      256.0000      272.0000   578137    6.25%
  14832  9876      267.0713   183      256.0000      272.0000   590015    6.25%
  15059 10056      270.0000   113      256.0000      272.0000   602118    6.25%
  15239 10210      262.0000   134      256.0000      272.0000   614371    6.25%
  15436 10392      266.0000   131      256.0000      272.0000   625240    6.25%
  15535 10468      271.9004   303      256.0000      272.0000   638051    6.25%
Elapsed time = 59.93 sec. (76761.00 ticks, tree = 97.53 MB, solutions = 10)
  15600 10523      271.7516   263      256.0000      272.0000   648327    6.25%
  15817 10722      271.0000   176      256.0000      272.0000   659903    6.25%
  15935 10826      260.5670   146      256.0000      272.0000   671364    6.25%
  16156 11026      264.0000   232      256.0000      272.0000   682467    6.25%
  16266 11116      272.0000   133      256.0000      272.0000   690940    6.25%
  16427 11239      272.0000   117      256.0000      272.0000   702626    6.25%
  16577 11367      272.0000   175      256.0000      272.0000   712761    6.25%
  16741 11511      272.0000   158      256.0000      272.0000   722108    6.25%
  16881 11624      269.6164   183      256.0000      272.0000   732236    6.25%
  16999 11710      272.0000   130      256.0000      272.0000   742198    6.25%
Elapsed time = 67.37 sec. (87145.02 ticks, tree = 112.63 MB, solutions = 10)
  17113 11809        cutoff            256.0000      272.0000   753098    6.25%
  17322 11992      263.3064   194      256.0000      272.0000   763983    6.25%
  17500 12147      269.0441   107      256.0000      272.0000   774188    6.25%
  17682 12295      270.0000   171      256.0000      272.0000   784075    6.25%
  17850 12433      272.0000   114      256.0000      272.0000   794104    6.25%
  18005 12556      272.0000   143      256.0000      272.0000   799581    6.25%
  18233 12748      267.1665   161      256.0000      272.0000   809765    6.25%
  18454 12943      269.2272   231      256.0000      272.0000   819893    6.25%
  18529 13013      272.0000   124      256.0000      272.0000   829556    6.25%
  18663 13125      269.8554   235      256.0000      272.0000   839891    6.25%
Elapsed time = 74.14 sec. (96874.85 ticks, tree = 128.04 MB, solutions = 10)
  18746 13196      270.0000   161      256.0000      272.0000   849324    6.25%
  18911 13333      272.0000   160      256.0000      272.0000   859000    6.25%
  18966 13369      258.0000    96      256.0000      272.0000   864404    6.25%
  19225 13587      263.9090   112      256.0000      272.0000   875296    6.25%
  19512 13839      269.5090   146      256.0000      272.0000   887379    6.25%
  19668 13986      263.8872   174      256.0000      272.0000   898864    6.25%
  19784 14095      267.7004   174      256.0000      272.0000   910145    6.25%
  19801 14108      272.0000   149      256.0000      272.0000   921528    6.25%
  20008 14291      272.0000   155      256.0000      272.0000   933221    6.25%
  20787 14941      271.0000   145      256.0000      272.0000   978435    6.25%
Elapsed time = 83.71 sec. (110098.52 ticks, tree = 150.98 MB, solutions = 10)
  21217 15286    infeasible            256.0000      272.0000  1016038    6.25%
  22237 16125      260.0000   128      256.0000      272.0000  1063628    6.25%
  22901 16637      269.9342   178      256.0000      272.0000  1105806    6.25%
  23066 16776      271.4444   232      256.0000      272.0000  1130846    6.25%
  23345 17006      263.9366   251      256.0000      272.0000  1173574    6.25%
  23560 17176      267.3794   231      256.0000      272.0000  1211314    6.25%
  23991 17549      271.3814   198      256.0000      272.0000  1249866    6.25%
  24647 18073      271.0000   148      256.0000      272.0000  1290848    6.25%
  24982 18366      272.0000   157      256.0000      272.0000  1313767    6.25%
  25598 18867      270.0000   128      256.0000      272.0000  1356456    6.25%
Elapsed time = 111.17 sec. (148647.91 ticks, tree = 194.27 MB, solutions = 10)
  26220 19372      268.2680   147      256.0000      272.0000  1402017    6.25%
  26565 19646      269.9490   225      256.0000      272.0000  1444003    6.25%
  27026 20035      265.6734   155      256.0000      272.0000  1482374    6.25%
  27602 20503      262.4856   138      256.0000      272.0000  1517642    6.25%
  28183 20959      271.0000   162      256.0000      272.0000  1561392    6.25%
  28709 21379      269.9275   294      256.0000      272.0000  1601209    6.25%
  28930 21558      270.0000   184      256.0000      272.0000  1629911    6.25%
  29540 22070      271.9974   155      256.0000      272.0000  1669263    6.25%
Starting limited solution polishing.
  30069 22484      270.6947   279      256.0000      272.0000  1710402    6.25%
  30339 22700      270.9744   204      256.0000      272.0000  1728022    6.25%
Elapsed time = 139.02 sec. (187055.85 ticks, tree = 247.11 MB, solutions = 10)
  30780 23068      271.6999   156      256.0000      272.0000  1766661    6.25%
  31066 23305      259.8004   123      256.0000      272.0000  1791934    6.25%
  31488 23644      271.0000   139      256.0000      272.0000  1826088    6.25%
Advanced basis not built.

GUB cover cuts applied:  57
Clique cuts applied:  86
Cover cuts applied:  20
Implied bound cuts applied:  405
Flow cuts applied:  14
Mixed integer rounding cuts applied:  48
Zero-half cuts applied:  15
Lift and project cuts applied:  1
Gomory fractional cuts applied:  9

Root node processing (before b&c):
  Real time             =    1.28 sec. (1458.40 ticks)
Sequential b&c:
  Real time             =  148.73 sec. (200507.17 ticks)
                          ------------
Total (root+branch&cut) =  150.00 sec. (201965.57 ticks)

Solution pool: 11 solutions saved.

MIP - Time limit exceeded, integer feasible:  Objective =  2.5600000000e+02
Current MIP best bound =  2.7200000000e+02 (gap = 16, 6.25%)
Solution time =  150.00 sec.  Iterations = 1861704  Nodes = 31766 (23870)
Deterministic time = 201965.58 ticks  (1346.42 ticks/sec)


Incumbent solution
Variable Name           Solution Value
F                           256.000000
y5                            1.000000
y8                            1.000000
y11                           1.000000
y26                           1.000000
y30                           1.000000
y35                           1.000000
y37                           1.000000
y44                           1.000000
y48                           1.000000
y53                           1.000000
y56                           1.000000
y57                           1.000000
y61                           1.000000
y71                           1.000000
y83                           1.000000
y89                           1.000000
y100                          1.000000
y105                          1.000000
y111                          1.000000
y125                          1.000000
y126                          1.000000
y128                          1.000000
y129                          1.000000
y134                          1.000000
y135                          1.000000
y148                          1.000000
y151                          1.000000
y158                          1.000000
y159                          1.000000
y172                          1.000000
y175                          1.000000
y176                          1.000000
y210                          1.000000
y217                          1.000000
y220                          1.000000
y231                          1.000000
y233                          1.000000
y238                          1.000000
y245                          1.000000
y249                          1.000000
y251                          1.000000
y254                          1.000000
y255                          1.000000
y261                          1.000000
y265                          1.000000
y276                          1.000000
y293                          1.000000
x32x35x1                      1.000000
x69x172x1                     1.000000
x70x238x1                     1.000000
x70x255x1                     1.000000
x82x231x1                     1.000000
x140x148x1                    1.000000
x170x5x1                      1.000000
x211x128x1                    2.000000
x239x53x1                     2.000000
x248x159x1                    1.000000
x7x100x2                      2.000000
x25x37x2                      1.000000
x69x48x2                      1.000000
x113x57x2                     1.000000
x113x175x2                    1.000000
x166x30x2                     1.000000
x170x276x2                    1.000000
x184x231x2                    1.000000
x248x48x2                     1.000000
x267x129x2                    2.000000
x25x148x3                     1.000000
x32x172x3                     1.000000
x42x26x3                      1.000000
x42x249x3                     1.000000
x59x37x3                      1.000000
x59x276x3                     1.000000
x82x210x3                     1.000000
x90x26x3                      1.000000
x90x30x3                      1.000000
x140x159x3                    1.000000
x166x125x3                    1.000000
x184x249x3                    1.000000
x5x245x1                      1.000000
x249x5x3                      1.000000
x5x83x3                       1.000000
x48x8x2                       1.000000
x231x8x2                      1.000000
x8x220x2                      2.000000
x53x11x1                      1.000000
x11x0x1                       1.000000
x57x11x2                      1.000000
x11x0x2                       1.000000
x26x56x3                      1.000000
x26x125x3                     1.000000
x30x44x2                      1.000000
x30x217x3                     1.000000
x159x35x1                     1.000000
x35x105x1                     1.000000
x35x251x1                     1.000000
x37x158x2                     1.000000
x37x210x3                     1.000000
x148x44x1                     1.000000
x44x89x1                      1.000000
x44x293x2                     1.000000
x48x217x2                     1.000000
x53x238x1                     1.000000
x172x56x3                     1.000000
x56x71x3                      1.000000
x56x126x3                     1.000000
x276x57x3                     1.000000
x57x261x3                     1.000000
x100x61x2                     2.000000
x61x71x2                      1.000000
x61x151x2                     1.000000
x71x0x2                       1.000000
x71x0x3                       1.000000
x238x83x1                     1.000000
x83x0x1                       1.000000
x83x0x3                       1.000000
x89x0x1                       1.000000
x175x89x2                     1.000000
x89x0x2                       1.000000
x134x105x1                    1.000000
x105x0x1                      2.000000
x217x111x2                    1.000000
x111x0x2                      1.000000
x217x111x3                    1.000000
x111x0x3                      1.000000
x125x245x3                    1.000000
x125x255x3                    1.000000
x233x126x2                    1.000000
x126x0x2                      1.000000
x126x0x3                      1.000000
x128x134x1                    1.000000
x128x233x1                    1.000000
x129x254x2                    1.000000
x129x265x2                    1.000000
x172x134x1                    1.000000
x134x261x1                    1.000000
x210x135x3                    2.000000
x135x0x3                      2.000000
x148x158x3                    1.000000
x238x151x1                    1.000000
x151x0x1                      1.000000
x151x0x2                      1.000000
x158x176x2                    1.000000
x158x176x3                    1.000000
x159x175x3                    1.000000
x175x251x3                    1.000000
x176x0x2                      1.000000
x176x0x3                      1.000000
x220x0x2                      2.000000
x231x265x1                    1.000000
x233x293x1                    1.000000
x276x233x2                    1.000000
x245x0x1                      1.000000
x245x0x3                      1.000000
x249x254x3                    1.000000
x251x0x1                      1.000000
x251x0x3                      1.000000
x254x0x2                      1.000000
x254x0x3                      1.000000
x255x0x1                      1.000000
x255x0x3                      1.000000
x261x0x1                      1.000000
x261x0x3                      1.000000
x265x0x1                      1.000000
x265x0x2                      1.000000
x293x0x1                      1.000000
x293x0x2                      1.000000
s7                            0.940756
s8                            7.470000
z7z8z2                        1.000000
s11                           9.120000
s20                           8.500000
z7z20z2                       1.000000
s30                           6.000000
s37                           6.000000
s44                           7.457281
s48                           6.270000
z7z48z2                       1.000000
s57                           7.263734
s61                           7.587735
z7z61z2                       1.000000
s66                           7.990000
s71                           9.065740
s89                           8.855517
s100                          6.400000
z7z100z2                      1.000000
s111                          8.740000
s120                          6.040000
z7z120z2                      1.000000
s124                          7.390000
z7z124z2                      1.000000
s126                          9.010599
s129                          7.229879
z7z129z2                      1.000000
s151                          9.310000
s158                          7.266207
s168                          9.080000
z7z168z2                      1.000000
s173                          9.230000
z7z173z2                      1.000000
s175                          7.450000
s176                          8.460000
s217                          7.439187
s220                          9.480000
z7z220z2                      1.000000
s231                          6.440000
s233                          7.873334
s254                          8.525927
s265                          8.746320
s276                          6.000000
s293                          8.900000
s25                           0.924242
s5                            7.748472
z25z8z2                       1.000000
z25z20z2                      1.000000
s26                           6.000000
z25z26z3                      1.000000
z25z37z2                      1.000000
z25z48z2                      1.000000
s56                           7.760000
z25z56z3                      1.000000
z25z61z2                      1.000000
s83                           9.490000
z25z100z2                     1.000000
z25z120z2                     1.000000
z25z124z2                     1.000000
s125                          7.462663
z25z125z3                     1.000000
z25z129z2                     1.000000
s135                          9.230000
z25z135z3                     1.000000
s148                          6.000000
z25z148z3                     1.000000
s159                          6.000000
z25z168z2                     1.000000
s172                          6.380000
z25z173z2                     1.000000
s210                          7.769468
z25z210z3                     1.000000
z25z220z2                     1.000000
s245                          9.080000
s249                          6.617493
z25z249z3                     1.000000
s251                          9.470000
s255                          8.720000
s261                          9.290000
s32                           0.850000
z32z26z3                      1.000000
s35                           8.070000
z32z35z1                      1.000000
s53                           6.000000
z32z53z1                      1.000000
z32z56z3                      1.000000
s105                          9.150000
z32z105z1                     1.000000
z32z125z3                     1.000000
s128                          6.000000
z32z128z1                     1.000000
s134                          7.632982
z32z134z1                     1.000000
z32z135z3                     1.000000
z32z172z3                     1.000000
z32z210z3                     1.000000
s238                          7.502616
z32z238z1                     1.000000
z32z249z3                     1.000000
s42                           0.935093
z42z26z3                      1.000000
z42z56z3                      1.000000
z42z125z3                     1.000000
z42z135z3                     1.000000
z42z210z3                     1.000000
z42z249z3                     1.000000
s59                           0.973082
z59z26z3                      1.000000
z59z37z3                      1.000000
z59z56z3                      1.000000
z59z125z3                     1.000000
z59z135z3                     1.000000
z59z210z3                     1.000000
z59z249z3                     1.000000
z59z276z3                     1.000000
s69                           0.891340
z69z8z2                       1.000000
z69z20z2                      1.000000
z69z35z1                      1.000000
z69z48z2                      1.000000
z69z53z1                      1.000000
z69z61z2                      1.000000
z69z100z2                     1.000000
z69z105z1                     1.000000
z69z120z2                     1.000000
z69z124z2                     1.000000
z69z128z1                     1.000000
z69z129z2                     1.000000
z69z134z1                     1.000000
z69z168z2                     1.000000
z69z172z1                     1.000000
z69z173z2                     1.000000
z69z220z2                     1.000000
z69z238z1                     1.000000
s70                           5.960000
z70z35z1                      1.000000
z70z105z1                     1.000000
z70z134z1                     1.000000
z70z238z1                     1.000000
z70z255z1                     1.000000
s82                           0.976570
z82z26z3                      1.000000
z82z35z1                      1.000000
z82z53z1                      1.000000
z82z56z3                      1.000000
z82z105z1                     1.000000
z82z125z3                     1.000000
z82z128z1                     1.000000
z82z134z1                     1.000000
z82z135z3                     1.000000
z82z210z3                     1.000000
z82z231z1                     1.000000
z82z238z1                     1.000000
z82z249z3                     1.000000
s90                           0.989029
z90z26z3                      1.000000
z90z30z3                      1.000000
z90z56z3                      1.000000
z90z125z3                     1.000000
z90z135z3                     1.000000
z90z210z3                     1.000000
z90z249z3                     1.000000
s113                          5.790000
z113z8z2                      1.000000
z113z20z2                     1.000000
z113z57z2                     1.000000
z113z168z2                    1.000000
z113z173z2                    1.000000
z113z175z2                    1.000000
z113z220z2                    1.000000
s140                          0.838120
z140z26z3                     1.000000
z140z35z1                     1.000000
z140z53z1                     1.000000
z140z56z3                     1.000000
z140z105z1                    1.000000
z140z125z3                    1.000000
z140z128z1                    1.000000
z140z134z1                    1.000000
z140z135z3                    1.000000
z140z148z1                    1.000000
z140z159z3                    1.000000
z140z210z3                    1.000000
z140z238z1                    1.000000
z140z249z3                    1.000000
s166                          0.978071
z166z8z2                      1.000000
z166z20z2                     1.000000
z166z26z3                     1.000000
z166z30z2                     1.000000
z166z48z2                     1.000000
z166z56z3                     1.000000
z166z61z2                     1.000000
z166z100z2                    1.000000
z166z120z2                    1.000000
z166z124z2                    1.000000
z166z125z3                    1.000000
z166z129z2                    1.000000
z166z135z3                    1.000000
z166z168z2                    1.000000
z166z173z2                    1.000000
z166z210z3                    1.000000
z166z220z2                    1.000000
z166z249z3                    1.000000
s170                          0.942362
z170z5z1                      1.000000
z170z8z2                      1.000000
z170z20z2                     1.000000
z170z35z1                     1.000000
z170z48z2                     1.000000
z170z53z1                     1.000000
z170z61z2                     1.000000
z170z100z2                    1.000000
z170z105z1                    1.000000
z170z120z2                    1.000000
z170z124z2                    1.000000
z170z128z1                    1.000000
z170z129z2                    1.000000
z170z134z1                    1.000000
z170z168z2                    1.000000
z170z173z2                    1.000000
z170z220z2                    1.000000
z170z238z1                    1.000000
z170z276z2                    1.000000
s184                          0.876482
z184z8z2                      1.000000
z184z20z2                     1.000000
z184z26z3                     1.000000
z184z48z2                     1.000000
z184z56z3                     1.000000
z184z61z2                     1.000000
z184z100z2                    1.000000
z184z120z2                    1.000000
z184z124z2                    1.000000
z184z125z3                    1.000000
z184z129z2                    1.000000
z184z135z3                    1.000000
z184z168z2                    1.000000
z184z173z2                    1.000000
z184z210z3                    1.000000
z184z220z2                    1.000000
z184z231z2                    1.000000
z184z249z3                    1.000000
s211                          0.960000
z211z35z1                     1.000000
z211z53z1                     1.000000
z211z105z1                    1.000000
z211z128z1                    1.000000
z211z134z1                    1.000000
z211z238z1                    1.000000
s239                          0.960000
z239z35z1                     1.000000
z239z53z1                     1.000000
z239z105z1                    1.000000
z239z128z1                    1.000000
z239z134z1                    1.000000
z239z238z1                    1.000000
s248                          0.902859
z248z8z2                      1.000000
z248z20z2                     1.000000
z248z35z1                     1.000000
z248z48z2                     1.000000
z248z53z1                     1.000000
z248z61z2                     1.000000
z248z100z2                    1.000000
z248z105z1                    1.000000
z248z120z2                    1.000000
z248z124z2                    1.000000
z248z128z1                    1.000000
z248z129z2                    1.000000
z248z134z1                    1.000000
z248z159z1                    1.000000
z248z168z2                    1.000000
z248z173z2                    1.000000
z248z220z2                    1.000000
z248z238z1                    1.000000
s267                          5.750000
z267z20z2                     1.000000
z267z129z2                    1.000000
z267z168z2                    1.000000
z267z173z2                    1.000000
z267z220z2                    1.000000
z5z83z3                       1.000000
z5z245z1                      1.000000
z8z220z2                      1.000000
z26z56z3                      1.000000
z26z125z3                     1.000000
z26z135z3                     1.000000
z26z210z3                     1.000000
z30z44z2                      1.000000
z30z56z3                      1.000000
z30z135z3                     1.000000
z30z168z2                     1.000000
z30z173z2                     1.000000
z30z210z3                     1.000000
z30z217z3                     1.000000
z30z220z2                     1.000000
z35z105z1                     1.000000
z35z251z1                     1.000000
z37z56z3                      1.000000
z37z135z3                     1.000000
z37z158z2                     1.000000
z37z168z2                     1.000000
z37z173z2                     1.000000
z37z210z3                     1.000000
z37z220z2                     1.000000
z44z89z1                      1.000000
z44z220z2                     1.000000
z44z293z2                     1.000000
z48z8z2                       1.000000
z48z217z2                     1.000000
z48z220z2                     1.000000
z53z11z1                      1.000000
z53z35z1                      1.000000
z53z105z1                     1.000000
z53z238z1                     1.000000
z56z71z3                      1.000000
z56z126z3                     1.000000
z56z135z3                     1.000000
z57z11z2                      1.000000
z57z135z3                     1.000000
z57z220z2                     1.000000
z57z261z3                     1.000000
z61z71z2                      1.000000
z61z151z2                     1.000000
z61z220z2                     1.000000
z100z61z2                     1.000000
z100z173z2                    1.000000
z100z220z2                    1.000000
z120z168z2                    1.000000
z120z173z2                    1.000000
z120z220z2                    1.000000
z124z220z2                    1.000000
z125z135z3                    1.000000
z125z245z3                    1.000000
z125z255z3                    1.000000
z128z35z1                     1.000000
z128z105z1                    1.000000
z128z134z1                    1.000000
z128z233z1                    1.000000
z129z220z2                    1.000000
z129z254z2                    1.000000
z129z265z2                    1.000000
z134z105z1                    1.000000
z134z261z1                    1.000000
z148z35z1                     1.000000
z148z44z1                     1.000000
z148z56z3                     1.000000
z148z105z1                    1.000000
z148z135z3                    1.000000
z148z158z3                    1.000000
z148z210z3                    1.000000
z158z135z3                    1.000000
z158z176z2                    1.000000
z158z176z3                    1.000000
z158z220z2                    1.000000
z159z35z1                     1.000000
z159z56z3                     1.000000
z159z105z1                    1.000000
z159z135z3                    1.000000
z159z175z3                    1.000000
z159z210z3                    1.000000
z172z56z3                     1.000000
z172z134z1                    1.000000
z172z135z3                    1.000000
z175z89z2                     1.000000
z175z135z3                    1.000000
z175z220z2                    1.000000
z175z251z3                    1.000000
z210z135z3                    1.000000
z217z111z2                    1.000000
z217z111z3                    1.000000
z231z8z2                      1.000000
z231z220z2                    1.000000
z231z265z1                    1.000000
z233z126z2                    1.000000
z233z293z1                    1.000000
z238z83z1                     1.000000
z238z151z1                    1.000000
z249z5z3                      1.000000
z249z135z3                    1.000000
z249z254z3                    1.000000
z276z20z2                     1.000000
z276z56z3                     1.000000
z276z57z3                     1.000000
z276z135z3                    1.000000
z276z168z2                    1.000000
z276z173z2                    1.000000
z276z210z3                    1.000000
z276z220z2                    1.000000
z276z233z2                    1.000000
All other variables in the range 1-3660 are 0.
